-833 -885 0
-25 -881 -53 0
56 -880 25 833 0
-881 -885 0
-883 -11 15 -52 -53 0
-52 -885 0
-885 0
-53 0
1 0
833 0
105 0
-781 0
-157 0
-11 0
203 0
791 0
245 0
349 0
589 0
693 0
-255 0
-151 0
-843 0
-739 0
-297 0
-193 0
-401 0
-641 0
-537 0
-745 0
447 0
63 0
343 0
651 0
547 0
489 0
385 0
593 0
209 0
449 0
729 0
7 0
345 0
553 0
-499 0
-583 0
-395 0
-115 0
-199 0
-291 0
-703 0
-599 0
-683 0
-495 0
-411 0
-541 0
-625 0
-437 0
-333 0
-37 0
-645 0
0
